# Data source: Swiss Energyscope
# Data source: P.Stadler et al, Contribution of Model Predictive Control in the Integration of Renewable Energy Sources within the Built Environment,2018
# Assumption: interest rate 3%
 
/*---------------------------------------------------------------------------------------------------------------------------------------
Set the efficienc of the SOFC
---------------------------------------------------------------------------------------------------------------------------------------*/
param eff_SOFC_elec := 0.60; # https://www.google.com/url?sa=t&rct=j&q=&esrc=s&source=web&cd=&ved=2ahUKEwjshf27mPuCAxUH4aQKHc-fDRcQFnoECAwQAQ&url=https%3A%2F%2Fpublications.jrc.ec.europa.eu%2Frepository%2Fbitstream%2FJRC115923%2Fjrc115923_stationary_fuel_cells_16042019_final_pubsy_online.pdf&usg=AOvVaw3SgDm4EvGihllGAxjhbTLw&opi=89978449
param eff_SOFC_heat := 0.70; # CHANGER

/*---------------------------------------------------------------------------------------------------------------------------------------
Set flow rate of hydrogen as a function of efficiency
---------------------------------------------------------------------------------------------------------------------------------------*/
let Qelecsupply['SOFC']:= 10000; # CHANGER
let Qheatingsupply['SOFC']:= 10000; # CHANGER
let Flowin['Electricity','SOFC'] := Qelecsupply['SOFC'] / eff_SOFC_elec; 
let Flowin['Heating','SOFC'] := Qheatingsupply['SOFC'] / eff_SOFC_heat; 

/*---------------------------------------------------------------------------------------------------------------------------------------
Set the maximum scaling factor
---------------------------------------------------------------------------------------------------------------------------------------*/
let  Fmax['SOFC'] := 10; # CHANGER

/*---------------------------------------------------------------------------------------------------------------------------------------
Set the minimum temperature of the SOFC
---------------------------------------------------------------------------------------------------------------------------------------*/
let Tminheating['SOFC'] := 120; # CHANGER

/*---------------------------------------------------------------------------------------------------------------------------------------
Set the cinv2 of the SOFC
---------------------------------------------------------------------------------------------------------------------------------------*/
let cinv1["SOFC"]:=288.6196; # CHANGER
let cinv2["SOFC"]:=79750; # CHANGER